c A SAT instance generated from a 3-CNF formula that had 36 clauses and 12 variables
p cnf 12 36
12 -5 -9 0
8 3 9 0
-3 -8 10 0
8 9 6 0
-1 4 -10 0
-9 -11 -8 0
-9 6 12 0
-1 -2 10 0
-9 6 -8 0
1 -5 6 0
-3 -5 11 0
2 -6 1 0
-2 -12 -4 0
11 3 9 0
7 1 2 0
-8 2 -6 0
7 8 11 0
-3 5 9 0
1 -2 -7 0
-9 12 -7 0
3 9 5 0
11 -9 4 0
7 4 11 0
1 -11 5 0
7 10 3 0
11 8 3 0
12 -9 6 0
5 -2 12 0
5 3 6 0
6 12 7 0
-3 -12 9 0
-6 -9 4 0
12 -4 -9 0
-8 6 12 0
-4 -1 -2 0
6 1 2 0
